NAME : tsp20_9.155.tour
COMMENT : Length = 155
COMMENT : Found by LKH [Keld Helsgaun]
TYPE : TOUR
DIMENSION : 20
TOUR_SECTION
1
15
4
19
8
9
3
16
20
17
2
5
10
6
14
12
7
11
13
18
-1
EOF
